(declare-fun temp198_1 () (_ BitVec 64))
(declare-fun var132318 () (_ BitVec 64))
(declare-fun ARGNAME_DstT_NAMEEND () (_ BitVec 64))
(declare-fun temp198_2 () (_ BitVec 64))
(declare-fun temp198_3 () (_ BitVec 64))
(declare-fun var132320 () (_ BitVec 64))
(declare-fun k!0 () (_ BitVec 64))
(declare-fun k!1 () Bool)
(declare-fun var132327 () (_ BitVec 64))
(declare-fun var132334 () (_ BitVec 64))
(declare-fun temp198_4 () (_ BitVec 64))
(declare-fun var131085 () (Array (_ BitVec 64) (_ BitVec 64)))
(declare-fun temp198_5 () (_ BitVec 64))
(declare-fun temp198_6 () (_ BitVec 64))
(declare-fun temp198_7 () (_ BitVec 64))
(declare-fun temp198_8 () (_ BitVec 64))
(declare-fun temp198_9 () (_ BitVec 64))
(declare-fun temp198_10 () (_ BitVec 64))
(declare-fun temp198_11 () (_ BitVec 64))
(declare-fun temp198_12 () (_ BitVec 64))
(declare-fun temp198_13 () (_ BitVec 64))
(declare-fun temp198_14 () (_ BitVec 64))
(declare-fun temp198_15 () (_ BitVec 64))
(declare-fun temp198_16 () (_ BitVec 64))
(declare-fun temp198_17 () (_ BitVec 64))
(declare-fun temp198_18 () (_ BitVec 64))
(declare-fun temp198_19 () (_ BitVec 64))
(declare-fun temp198_20 () (_ BitVec 64))
(declare-fun temp198_21 () (_ BitVec 64))
(declare-fun temp198_22 () (_ BitVec 64))
(declare-fun temp198_23 () (_ BitVec 64))
(declare-fun temp198_24 () (_ BitVec 64))
(declare-fun temp198_25 () (_ BitVec 64))
(declare-fun ARGNAME_SrcT_NAMEEND () (_ BitVec 64))
(declare-fun temp198_26 () (_ BitVec 64))
(declare-fun temp198_27 () (_ BitVec 64))
(declare-fun temp198_28 () (_ BitVec 64))
(declare-fun temp198_29 () (_ BitVec 64))
(assert (= temp198_1 #xfffffffffffffff5))
(assert (= var132318 (bvadd ARGNAME_DstT_NAMEEND temp198_1)))
(assert (= temp198_2 #x0000000000000006))
(assert (= var132320
   (ite (bvslt var132318 temp198_2) #x0000000000000001 #x0000000000000000)))
(assert (= temp198_3 #x0000000000000001))
(assert (= var132320 temp198_3))
(assert (= var132327 var132318))
(assert (= var132334 var132318))
(assert (= temp198_4 #x0000000000000000))
(assert (= temp198_5 (select var131085 temp198_4)))
(assert (= temp198_6 #x0000000000000001))
(assert (= temp198_7 (select var131085 temp198_6)))
(assert (= temp198_8 #x0000000000000002))
(assert (= temp198_9 (select var131085 temp198_8)))
(assert (= temp198_10 #x0000000000000003))
(assert (= temp198_11 (select var131085 temp198_10)))
(assert (= temp198_12 #x0000000000000004))
(assert (= temp198_13 (select var131085 temp198_12)))
(assert (= temp198_14 #x0000000000000005))
(assert (= temp198_15 (select var131085 temp198_14)))
(assert (= temp198_16 #x0000000000000006))
(assert (= (select var131085 #x0000000000000000) temp198_16))
(assert (= temp198_17 #x0000000000000004))
(assert (= (select var131085 #x0000000000000001) temp198_17))
(assert (= temp198_18 #x0000000000000003))
(assert (= (select var131085 #x0000000000000002) temp198_18))
(assert (= temp198_19 #x0000000000000004))
(assert (= (select var131085 #x0000000000000003) temp198_19))
(assert (= temp198_20 #x0000000000000005))
(assert (= (select var131085 #x0000000000000004) temp198_20))
(assert (= temp198_21 #x0000000000000011))
(assert (= (select var131085 #x0000000000000005) temp198_21))
(assert (= temp198_22 (select var131085 var132334)))
(assert (= temp198_23 #x0000000000000000))
(assert (bvsge var132334 temp198_23))
(assert (= temp198_24 #x0000000000000006))
(assert (bvslt var132334 temp198_24))
(assert (= temp198_25 #x000000000000000b))
(assert (distinct ARGNAME_SrcT_NAMEEND temp198_25))
(assert (= temp198_26 #x000000000000000c))
(assert (distinct ARGNAME_SrcT_NAMEEND temp198_26))
(assert (= temp198_27 #x000000000000000d))
(assert (distinct ARGNAME_SrcT_NAMEEND temp198_27))
(assert (= temp198_28 #x000000000000000f))
(assert (distinct ARGNAME_SrcT_NAMEEND temp198_28))
(assert (= temp198_29 #x0000000000000010))
(assert (distinct ARGNAME_SrcT_NAMEEND temp198_29))
(model-add temp198_1 () (_ BitVec 64) #xfffffffffffffff5)
(model-add var132318
           ()
           (_ BitVec 64)
           (bvadd #xfffffffffffffff5 ARGNAME_DstT_NAMEEND))
(model-add temp198_2 () (_ BitVec 64) #x0000000000000006)
(model-add temp198_3 () (_ BitVec 64) #x0000000000000001)
(model-add var132320 () (_ BitVec 64) #x0000000000000001)
(model-del k!0)
(model-add ARGNAME_DstT_NAMEEND () (_ BitVec 64) (bvsub k!0 #xfffffffffffffff5))
(model-del k!1)
(model-add k!0
           ()
           (_ BitVec 64)
           (ite (or k!1 (= #x0000000000000006 #x8000000000000000))
                #x0000000000000006
                (bvsub #x0000000000000006 #x0000000000000001)))









